WARNING: for repeatability, setting FPU to use double precision
============================[ Problem Statistics ]=============================
|                                                                             |
|  Number of variables:            50                                         |
|  Number of clauses:             218                                         |
|  Parse time:                   0.00 s                                       |
|                                                                             |
============================[ Search Statistics ]==============================
| Conflicts |          ORIGINAL         |          LEARNT          | Progress |
|           |    Vars  Clauses Literals |    Limit  Clauses Lit/Cl |          |
===============================================================================
===============================================================================
restarts              : 1
conflicts             : 53             (289617 /sec)
decisions             : 58             (0.00 % random) (316940 /sec)
propagations          : 743            (4060109 /sec)
conflict literals     : 196            (15.88 % deleted)
Memory used           : 20.00 MB
CPU time              : 0.000183 s

UNSATISFIABLE
